C8
1.0
2.536740 0.000000 -0.000000
1.268370 2.196882 -0.000000
0.000000 0.000000 29.790117
C
8
direct
0.333333 0.333334 0.254781 C  
0.666667 0.666666 0.243412 C  
0.000000 0.000000 0.117521 C  
0.666667 0.666666 0.187001 C  
0.333333 0.333334 0.044938 C  
0.000000 0.000000 0.170828 C  
0.666667 0.666666 0.033568 C  
0.333333 0.333334 0.101349 C  
