Cu4
1.0
2.536740 0.000000 -0.000000
1.268370 2.196882 -0.000000
0.000000 0.000000 29.790117
Cu
4
direct
0.000000 0.000000 -0.241696 Cu
0.333333 0.333334 -0.172290 Cu
0.000000 0.000000 -0.033568 Cu
0.666667 0.666666 -0.102974 Cu
