Cu4
1.0
2.569307 0.000000 0.000000
-1.284653 2.225085 0.000000
0.000000 0.000000 29.400305
Cu
4
direct
0.000000 0.000000 -0.244901 Cu
0.333333 0.666667 -0.174574 Cu
0.000000 0.000000 -0.034013 Cu
0.666667 0.333333 -0.104340 Cu
