 C 111                                  
    1.00000000000000     
      5.007136700949522   0.0000000000000000    0.0000
      2.503568350474761    4.336307583243691    0.0000
      0.0000000000000000    0.0000000000000000   38
F C  
1 40
Direct
  0.5000823000055903  0.4998770794291398  0.2682442765311327  
  0.1667191359695995  0.1666275354582319  0.0014949374979509  
  0.8333661469847709  0.3333033328257647  0.0106670003449226  
  0.8333658857013856  0.3333009390785457  0.0544344495776399  
  1.0000611938464570  0.9998843313714486  0.0673526845387017  
  0.0001419596552043 -0.0001238496145718  0.1085210257664944  
  0.1667178797574840  0.1666254629640801  0.1219673147830682  
  0.1667439678254602  0.1666083516920311  0.1628886786644251  
  0.8331186794635767  0.3334268631539549  0.1762136684388731  
  0.8339199324261224  0.3330353618311414  0.2185244952177352  
  0.0009250793314494  0.0008428549110057  0.2278526079901995  
  0.6667276203433893  0.1666227139752710  0.0014913501087309  
  0.3333942826304420  0.3333123519007654  0.0106612586062314  
  0.3333916115628363  0.3333219112659997  0.0544276935458946  
  0.5001101809222218  0.9999276911848001  0.0673443564809657  
  0.5000402059951075 -0.0000266188950000  0.1085079693103845  
  0.6669084263963535  0.1663078627338382  0.1219405354406025  
  0.6666864418008980  0.1667174174883420  0.1631195693798486  
  0.3335663675894564  0.3333912371134911  0.1762222346803863  
  0.3331448175932792  0.3330163748361964  0.2185287587878125  
  0.4983260426876503  0.0008379400216225  0.2278620858803282  
  0.1667188849586248  0.6666256609664977  0.0014816016344222  
  0.8333982541441914  0.8332832167081168  0.0106680963913023  
  0.8334041214580360  0.8332764363461099  0.0544053426595815  
  1.0000298975050486  0.5000299999911281  0.0673589965360489  
  0.9999999409753357  0.5000000480542823  0.1085345263157862  
  0.1666665646354346  0.6666667307390455  0.1219877631578967  
  0.1669028207096284  0.6665428787470746  0.1631384740720328  
  0.8334088465850933  0.8332848484105488  0.1756890989841834  
  0.8333955697283996  0.8332983741097528  0.2216361480178528  
  0.0009377399039789  0.4982136654582107  0.2278475743716701  
  0.6667344318029835  0.6666190350874193  0.0014875179415873  
  0.3334040148635103  0.8332569933789651  0.0106586406200565  
  0.3334118081403891  0.8332414499692479  0.0544226304285807  
  0.5000458705659884  0.4999594585454707  0.0673638227050365  
  0.5001134830508369  0.4999192367713474  0.1086095438719717  
  0.6668453845613832  0.6667819967905511  0.1219460832898047  
  0.6666667425937169  0.6665801012104225  0.1631237319651390  
  0.3335599708893425  0.8330201165033052  0.1762274279847474  
  0.3331385244423259  0.8338365285841101  0.2185356868580146  
  0.5000598819850719  0.4999522667687339  0.2332856441725668  
              
              